data;

param num_top:=3;

#nodes and edges of the physical network
param n := 10;

set E := (1,2) (1,3) (1,7) (2,4) (2,7) (3,5) (4,8) (5,6) (5,7) (6,7) (6,9) (7,8) (7,9) (8,10) (9,10) ;

#nodes and edges of the virtual networks
set Nl[1] := 7 1 9 8 4 ;
set Nl[2] := 2 5 4 9 7 ;
set Nl[3] := 3 1 7 2 10 ;

set El[1] := (1,7) (1,9) (8,9) (4,8) (4,7) (7,9) (1,8) (7,8) (1,4) (4,9) ;
set El[2] := (2,5) (4,5) (4,9) (7,9) (2,7) (5,9) (2,9) (5,7) (4,7) (2,4) ;
set El[3] := (1,3) (1,7) (2,7) (2,10) (3,10) (7,10) (2,3) (1,2) (3,7) (1,10) ;
